Maximize
 obj: x1 + x2 + x3 + x4 + x5 + x6 + x7 + x8 + x9 + x10 + x11 + x12 + x13 + x14 + x15 + x16 + x17 + x18 + x19 + x20 + x21 + x22 + x23 + x24 + x25 + x26 + x27 + x28 + x29 + x30 + x31 + x32 + x33 + x34 + x35 + x36 + x37 + x38 + x39 + x40 + x41 + x42 + x43 + x44 + x45 + x46 + x47 + x48 + x49 + x50 + x51 + x52 + x53 + x54 + x55 + x56 + x57 + x58 + x59 + x60 + x61 + x62 + x63 + x64 + x65 + x66 + x67 + x68 + x69 + x70 + x71 + x72 + x73 + x74 + x75 + x76 + x77 + x78 + x79 + x80 + x81 + x82 + x83 + x84 + x85 + x86 + x87 + x88 + x89 + x90 + x91 + x92 + x93 + x94 + x95 + x96 + x97 + x98 + x99 + x100 + x101 + x102 + x103 + x104 + x105 + x106 + x107 + x108 + x109 + x110 + x111 + x112 + x113 + x114 + x115 + x116 + x117 + x118 + x119 + x120 + x121 + x122 + x123 + x124 + x125 + x126 + x127 + x128 + x129 + x130 + x131 + x132 + x133 + x134 + x135 + x136 + x137 + x138 + x139 + x140 + x141 + x142 + x143 + x144 + x145 + x146 + x147 + x148 + x149 + x150 + x151 + x152 + x153 + x154 + x155 + x156 + x157 + x158 + x159 + x160 + x161 + x162 + x163 + x164 + x165 + x166 + x167 + x168 + x169 + x170 + x171 + x172 + x173 + x174 + x175 + x176 + x177 + x178 + x179 + x180 + x181 + x182 + x183 + x184 + x185 + x186 + x187 + x188 + x189 + x190 + x191 + x192 + x193 + x194 + x195 + x196 + x197 + x198 + x199 + x200 + x201 + x202 + x203 + x204 + x205 + x206 + x207 + x208 + x209 + x210 + x211 + x212 + x213 + x214 + x215 + x216 + x217 + x218 + x219 + x220 + x221 + x222 + x223 + x224 + x225 + x226 + x227 + x228 + x229 + x230 + x231 + x232 + x233 + x234 + x235 + x236 + x237 + x238 + x239 + x240 + x241 + x242 + x243 + x244 + x245 + x246 + x247 + x248 + x249 + x250 + x251 + x252 + x253 + x254 + x255 + x256 + x257 + x258 + x259 + x260 + x261 + x262 + x263 + x264 + x265 + x266 + x267 + x268 + x269 + x270 + x271 + x272 + x273 + x274 + x275 + x276 + x277 + x278 + x279 + x280 + x281 + x282 + x283 + x284 + x285 + x286 + x287 + x288 + x289 + x290 + x291 + x292 + x293 + x294 + x295 + x296 + x297 + x298 + x299 + x300 + x301 + x302 + x303 + x304 + x305 + x306 + x307 + x308 + x309 + x310 + x311 + x312 + x313 + x314 + x315 + x316 + x317 + x318 + x319 + x320 + x321 + x322 + x323 + x324 + x325 + x326 + x327 + x328 + x329 + x330 + x331 + x332 + x333 + x334 + x335 + x336 + x337 + x338 + x339 + x340 + x341 + x342 + x343 + x344 + x345 + x346 + x347 + x348 + x349 + x350 + x351 + x352 + x353 + x354 + x355 + x356 + x357 + x358 + x359 + x360 + x361 + x362 + x363 + x364 + x365 + x366 + x367 + x368 + x369 + x370 + x371 + x372 + x373 + x374 + x375 + x376 + x377 + x378 + x379 + x380 + x381 + x382 + x383 + x384 + x385 + x386 + x387 + x388 + x389 + x390 + x391 + x392 + x393 + x394 + x395 + x396 + x397 + x398 + x399 + x400 + x401 + x402 + x403 + x404 + x405 + x406 + x407 + x408 + x409 + x410 + x411 + x412 + x413 + x414 + x415 + x416 + x417 + x418 + x419 + x420 + x421 + x422 + x423 + x424 + x425 + x426 + x427 + x428 + x429 + x430 + x431 + x432 + x433 + x434 + x435 + x436 + x437 + x438 + x439 + x440 + x441 + x442 + x443 + x444 + x445 + x446 + x447 + x448 + x449 + x450 + x451 + x452 + x453 + x454 + x455 + x456 + x457 + x458 + x459 + x460 + x461 + x462 + x463 + x464 + x465 + x466 + x467 + x468 + x469 + x470 + x471 + x472 + x473 + x474 + x475 + x476 + x477 + x478 + x479 + x480 + x481 + x482 + x483 + x484 + x485 + x486 + x487 + x488 + x489 + x490 + x491 + x492 + x493 + x494 + x495 + x496 + x497 + x498 + x499 + x500 + x501
Subject To
 c1: x1 + x2 <= 1
 c2: x2 + x3 <= 1
 c3: x3 + x4 <= 1
 c4: x4 + x5 <= 1
 c5: x5 + x6 <= 1
 c6: x6 + x7 <= 1
 c7: x7 + x8 <= 1
 c8: x8 + x9 <= 1
 c9: x9 + x10 <= 1
 c10: x10 + x11 <= 1
 c11: x11 + x12 <= 1
 c12: x12 + x13 <= 1
 c13: x13 + x14 <= 1
 c14: x14 + x15 <= 1
 c15: x15 + x16 <= 1
 c16: x16 + x17 <= 1
 c17: x17 + x18 <= 1
 c18: x18 + x19 <= 1
 c19: x19 + x20 <= 1
 c20: x20 + x21 <= 1
 c21: x21 + x22 <= 1
 c22: x22 + x23 <= 1
 c23: x23 + x24 <= 1
 c24: x24 + x25 <= 1
 c25: x25 + x26 <= 1
 c26: x26 + x27 <= 1
 c27: x27 + x28 <= 1
 c28: x28 + x29 <= 1
 c29: x29 + x30 <= 1
 c30: x30 + x31 <= 1
 c31: x31 + x32 <= 1
 c32: x32 + x33 <= 1
 c33: x33 + x34 <= 1
 c34: x34 + x35 <= 1
 c35: x35 + x36 <= 1
 c36: x36 + x37 <= 1
 c37: x37 + x38 <= 1
 c38: x38 + x39 <= 1
 c39: x39 + x40 <= 1
 c40: x40 + x41 <= 1
 c41: x41 + x42 <= 1
 c42: x42 + x43 <= 1
 c43: x43 + x44 <= 1
 c44: x44 + x45 <= 1
 c45: x45 + x46 <= 1
 c46: x46 + x47 <= 1
 c47: x47 + x48 <= 1
 c48: x48 + x49 <= 1
 c49: x49 + x50 <= 1
 c50: x50 + x51 <= 1
 c51: x51 + x52 <= 1
 c52: x52 + x53 <= 1
 c53: x53 + x54 <= 1
 c54: x54 + x55 <= 1
 c55: x55 + x56 <= 1
 c56: x56 + x57 <= 1
 c57: x57 + x58 <= 1
 c58: x58 + x59 <= 1
 c59: x59 + x60 <= 1
 c60: x60 + x61 <= 1
 c61: x61 + x62 <= 1
 c62: x62 + x63 <= 1
 c63: x63 + x64 <= 1
 c64: x64 + x65 <= 1
 c65: x65 + x66 <= 1
 c66: x66 + x67 <= 1
 c67: x67 + x68 <= 1
 c68: x68 + x69 <= 1
 c69: x69 + x70 <= 1
 c70: x70 + x71 <= 1
 c71: x71 + x72 <= 1
 c72: x72 + x73 <= 1
 c73: x73 + x74 <= 1
 c74: x74 + x75 <= 1
 c75: x75 + x76 <= 1
 c76: x76 + x77 <= 1
 c77: x77 + x78 <= 1
 c78: x78 + x79 <= 1
 c79: x79 + x80 <= 1
 c80: x80 + x81 <= 1
 c81: x81 + x82 <= 1
 c82: x82 + x83 <= 1
 c83: x83 + x84 <= 1
 c84: x84 + x85 <= 1
 c85: x85 + x86 <= 1
 c86: x86 + x87 <= 1
 c87: x87 + x88 <= 1
 c88: x88 + x89 <= 1
 c89: x89 + x90 <= 1
 c90: x90 + x91 <= 1
 c91: x91 + x92 <= 1
 c92: x92 + x93 <= 1
 c93: x93 + x94 <= 1
 c94: x94 + x95 <= 1
 c95: x95 + x96 <= 1
 c96: x96 + x97 <= 1
 c97: x97 + x98 <= 1
 c98: x98 + x99 <= 1
 c99: x99 + x100 <= 1
 c100: x100 + x101 <= 1
 c101: x101 + x102 <= 1
 c102: x102 + x103 <= 1
 c103: x103 + x104 <= 1
 c104: x104 + x105 <= 1
 c105: x105 + x106 <= 1
 c106: x106 + x107 <= 1
 c107: x107 + x108 <= 1
 c108: x108 + x109 <= 1
 c109: x109 + x110 <= 1
 c110: x110 + x111 <= 1
 c111: x111 + x112 <= 1
 c112: x112 + x113 <= 1
 c113: x113 + x114 <= 1
 c114: x114 + x115 <= 1
 c115: x115 + x116 <= 1
 c116: x116 + x117 <= 1
 c117: x117 + x118 <= 1
 c118: x118 + x119 <= 1
 c119: x119 + x120 <= 1
 c120: x120 + x121 <= 1
 c121: x121 + x122 <= 1
 c122: x122 + x123 <= 1
 c123: x123 + x124 <= 1
 c124: x124 + x125 <= 1
 c125: x125 + x126 <= 1
 c126: x126 + x127 <= 1
 c127: x127 + x128 <= 1
 c128: x128 + x129 <= 1
 c129: x129 + x130 <= 1
 c130: x130 + x131 <= 1
 c131: x131 + x132 <= 1
 c132: x132 + x133 <= 1
 c133: x133 + x134 <= 1
 c134: x134 + x135 <= 1
 c135: x135 + x136 <= 1
 c136: x136 + x137 <= 1
 c137: x137 + x138 <= 1
 c138: x138 + x139 <= 1
 c139: x139 + x140 <= 1
 c140: x140 + x141 <= 1
 c141: x141 + x142 <= 1
 c142: x142 + x143 <= 1
 c143: x143 + x144 <= 1
 c144: x144 + x145 <= 1
 c145: x145 + x146 <= 1
 c146: x146 + x147 <= 1
 c147: x147 + x148 <= 1
 c148: x148 + x149 <= 1
 c149: x149 + x150 <= 1
 c150: x150 + x151 <= 1
 c151: x151 + x152 <= 1
 c152: x152 + x153 <= 1
 c153: x153 + x154 <= 1
 c154: x154 + x155 <= 1
 c155: x155 + x156 <= 1
 c156: x156 + x157 <= 1
 c157: x157 + x158 <= 1
 c158: x158 + x159 <= 1
 c159: x159 + x160 <= 1
 c160: x160 + x161 <= 1
 c161: x161 + x162 <= 1
 c162: x162 + x163 <= 1
 c163: x163 + x164 <= 1
 c164: x164 + x165 <= 1
 c165: x165 + x166 <= 1
 c166: x166 + x167 <= 1
 c167: x167 + x168 <= 1
 c168: x168 + x169 <= 1
 c169: x169 + x170 <= 1
 c170: x170 + x171 <= 1
 c171: x171 + x172 <= 1
 c172: x172 + x173 <= 1
 c173: x173 + x174 <= 1
 c174: x174 + x175 <= 1
 c175: x175 + x176 <= 1
 c176: x176 + x177 <= 1
 c177: x177 + x178 <= 1
 c178: x178 + x179 <= 1
 c179: x179 + x180 <= 1
 c180: x180 + x181 <= 1
 c181: x181 + x182 <= 1
 c182: x182 + x183 <= 1
 c183: x183 + x184 <= 1
 c184: x184 + x185 <= 1
 c185: x185 + x186 <= 1
 c186: x186 + x187 <= 1
 c187: x187 + x188 <= 1
 c188: x188 + x189 <= 1
 c189: x189 + x190 <= 1
 c190: x190 + x191 <= 1
 c191: x191 + x192 <= 1
 c192: x192 + x193 <= 1
 c193: x193 + x194 <= 1
 c194: x194 + x195 <= 1
 c195: x195 + x196 <= 1
 c196: x196 + x197 <= 1
 c197: x197 + x198 <= 1
 c198: x198 + x199 <= 1
 c199: x199 + x200 <= 1
 c200: x200 + x201 <= 1
 c201: x201 + x202 <= 1
 c202: x202 + x203 <= 1
 c203: x203 + x204 <= 1
 c204: x204 + x205 <= 1
 c205: x205 + x206 <= 1
 c206: x206 + x207 <= 1
 c207: x207 + x208 <= 1
 c208: x208 + x209 <= 1
 c209: x209 + x210 <= 1
 c210: x210 + x211 <= 1
 c211: x211 + x212 <= 1
 c212: x212 + x213 <= 1
 c213: x213 + x214 <= 1
 c214: x214 + x215 <= 1
 c215: x215 + x216 <= 1
 c216: x216 + x217 <= 1
 c217: x217 + x218 <= 1
 c218: x218 + x219 <= 1
 c219: x219 + x220 <= 1
 c220: x220 + x221 <= 1
 c221: x221 + x222 <= 1
 c222: x222 + x223 <= 1
 c223: x223 + x224 <= 1
 c224: x224 + x225 <= 1
 c225: x225 + x226 <= 1
 c226: x226 + x227 <= 1
 c227: x227 + x228 <= 1
 c228: x228 + x229 <= 1
 c229: x229 + x230 <= 1
 c230: x230 + x231 <= 1
 c231: x231 + x232 <= 1
 c232: x232 + x233 <= 1
 c233: x233 + x234 <= 1
 c234: x234 + x235 <= 1
 c235: x235 + x236 <= 1
 c236: x236 + x237 <= 1
 c237: x237 + x238 <= 1
 c238: x238 + x239 <= 1
 c239: x239 + x240 <= 1
 c240: x240 + x241 <= 1
 c241: x241 + x242 <= 1
 c242: x242 + x243 <= 1
 c243: x243 + x244 <= 1
 c244: x244 + x245 <= 1
 c245: x245 + x246 <= 1
 c246: x246 + x247 <= 1
 c247: x247 + x248 <= 1
 c248: x248 + x249 <= 1
 c249: x249 + x250 <= 1
 c250: x250 + x251 <= 1
 c251: x251 + x252 <= 1
 c252: x252 + x253 <= 1
 c253: x253 + x254 <= 1
 c254: x254 + x255 <= 1
 c255: x255 + x256 <= 1
 c256: x256 + x257 <= 1
 c257: x257 + x258 <= 1
 c258: x258 + x259 <= 1
 c259: x259 + x260 <= 1
 c260: x260 + x261 <= 1
 c261: x261 + x262 <= 1
 c262: x262 + x263 <= 1
 c263: x263 + x264 <= 1
 c264: x264 + x265 <= 1
 c265: x265 + x266 <= 1
 c266: x266 + x267 <= 1
 c267: x267 + x268 <= 1
 c268: x268 + x269 <= 1
 c269: x269 + x270 <= 1
 c270: x270 + x271 <= 1
 c271: x271 + x272 <= 1
 c272: x272 + x273 <= 1
 c273: x273 + x274 <= 1
 c274: x274 + x275 <= 1
 c275: x275 + x276 <= 1
 c276: x276 + x277 <= 1
 c277: x277 + x278 <= 1
 c278: x278 + x279 <= 1
 c279: x279 + x280 <= 1
 c280: x280 + x281 <= 1
 c281: x281 + x282 <= 1
 c282: x282 + x283 <= 1
 c283: x283 + x284 <= 1
 c284: x284 + x285 <= 1
 c285: x285 + x286 <= 1
 c286: x286 + x287 <= 1
 c287: x287 + x288 <= 1
 c288: x288 + x289 <= 1
 c289: x289 + x290 <= 1
 c290: x290 + x291 <= 1
 c291: x291 + x292 <= 1
 c292: x292 + x293 <= 1
 c293: x293 + x294 <= 1
 c294: x294 + x295 <= 1
 c295: x295 + x296 <= 1
 c296: x296 + x297 <= 1
 c297: x297 + x298 <= 1
 c298: x298 + x299 <= 1
 c299: x299 + x300 <= 1
 c300: x300 + x301 <= 1
 c301: x301 + x302 <= 1
 c302: x302 + x303 <= 1
 c303: x303 + x304 <= 1
 c304: x304 + x305 <= 1
 c305: x305 + x306 <= 1
 c306: x306 + x307 <= 1
 c307: x307 + x308 <= 1
 c308: x308 + x309 <= 1
 c309: x309 + x310 <= 1
 c310: x310 + x311 <= 1
 c311: x311 + x312 <= 1
 c312: x312 + x313 <= 1
 c313: x313 + x314 <= 1
 c314: x314 + x315 <= 1
 c315: x315 + x316 <= 1
 c316: x316 + x317 <= 1
 c317: x317 + x318 <= 1
 c318: x318 + x319 <= 1
 c319: x319 + x320 <= 1
 c320: x320 + x321 <= 1
 c321: x321 + x322 <= 1
 c322: x322 + x323 <= 1
 c323: x323 + x324 <= 1
 c324: x324 + x325 <= 1
 c325: x325 + x326 <= 1
 c326: x326 + x327 <= 1
 c327: x327 + x328 <= 1
 c328: x328 + x329 <= 1
 c329: x329 + x330 <= 1
 c330: x330 + x331 <= 1
 c331: x331 + x332 <= 1
 c332: x332 + x333 <= 1
 c333: x333 + x334 <= 1
 c334: x334 + x335 <= 1
 c335: x335 + x336 <= 1
 c336: x336 + x337 <= 1
 c337: x337 + x338 <= 1
 c338: x338 + x339 <= 1
 c339: x339 + x340 <= 1
 c340: x340 + x341 <= 1
 c341: x341 + x342 <= 1
 c342: x342 + x343 <= 1
 c343: x343 + x344 <= 1
 c344: x344 + x345 <= 1
 c345: x345 + x346 <= 1
 c346: x346 + x347 <= 1
 c347: x347 + x348 <= 1
 c348: x348 + x349 <= 1
 c349: x349 + x350 <= 1
 c350: x350 + x351 <= 1
 c351: x351 + x352 <= 1
 c352: x352 + x353 <= 1
 c353: x353 + x354 <= 1
 c354: x354 + x355 <= 1
 c355: x355 + x356 <= 1
 c356: x356 + x357 <= 1
 c357: x357 + x358 <= 1
 c358: x358 + x359 <= 1
 c359: x359 + x360 <= 1
 c360: x360 + x361 <= 1
 c361: x361 + x362 <= 1
 c362: x362 + x363 <= 1
 c363: x363 + x364 <= 1
 c364: x364 + x365 <= 1
 c365: x365 + x366 <= 1
 c366: x366 + x367 <= 1
 c367: x367 + x368 <= 1
 c368: x368 + x369 <= 1
 c369: x369 + x370 <= 1
 c370: x370 + x371 <= 1
 c371: x371 + x372 <= 1
 c372: x372 + x373 <= 1
 c373: x373 + x374 <= 1
 c374: x374 + x375 <= 1
 c375: x375 + x376 <= 1
 c376: x376 + x377 <= 1
 c377: x377 + x378 <= 1
 c378: x378 + x379 <= 1
 c379: x379 + x380 <= 1
 c380: x380 + x381 <= 1
 c381: x381 + x382 <= 1
 c382: x382 + x383 <= 1
 c383: x383 + x384 <= 1
 c384: x384 + x385 <= 1
 c385: x385 + x386 <= 1
 c386: x386 + x387 <= 1
 c387: x387 + x388 <= 1
 c388: x388 + x389 <= 1
 c389: x389 + x390 <= 1
 c390: x390 + x391 <= 1
 c391: x391 + x392 <= 1
 c392: x392 + x393 <= 1
 c393: x393 + x394 <= 1
 c394: x394 + x395 <= 1
 c395: x395 + x396 <= 1
 c396: x396 + x397 <= 1
 c397: x397 + x398 <= 1
 c398: x398 + x399 <= 1
 c399: x399 + x400 <= 1
 c400: x400 + x401 <= 1
 c401: x401 + x402 <= 1
 c402: x402 + x403 <= 1
 c403: x403 + x404 <= 1
 c404: x404 + x405 <= 1
 c405: x405 + x406 <= 1
 c406: x406 + x407 <= 1
 c407: x407 + x408 <= 1
 c408: x408 + x409 <= 1
 c409: x409 + x410 <= 1
 c410: x410 + x411 <= 1
 c411: x411 + x412 <= 1
 c412: x412 + x413 <= 1
 c413: x413 + x414 <= 1
 c414: x414 + x415 <= 1
 c415: x415 + x416 <= 1
 c416: x416 + x417 <= 1
 c417: x417 + x418 <= 1
 c418: x418 + x419 <= 1
 c419: x419 + x420 <= 1
 c420: x420 + x421 <= 1
 c421: x421 + x422 <= 1
 c422: x422 + x423 <= 1
 c423: x423 + x424 <= 1
 c424: x424 + x425 <= 1
 c425: x425 + x426 <= 1
 c426: x426 + x427 <= 1
 c427: x427 + x428 <= 1
 c428: x428 + x429 <= 1
 c429: x429 + x430 <= 1
 c430: x430 + x431 <= 1
 c431: x431 + x432 <= 1
 c432: x432 + x433 <= 1
 c433: x433 + x434 <= 1
 c434: x434 + x435 <= 1
 c435: x435 + x436 <= 1
 c436: x436 + x437 <= 1
 c437: x437 + x438 <= 1
 c438: x438 + x439 <= 1
 c439: x439 + x440 <= 1
 c440: x440 + x441 <= 1
 c441: x441 + x442 <= 1
 c442: x442 + x443 <= 1
 c443: x443 + x444 <= 1
 c444: x444 + x445 <= 1
 c445: x445 + x446 <= 1
 c446: x446 + x447 <= 1
 c447: x447 + x448 <= 1
 c448: x448 + x449 <= 1
 c449: x449 + x450 <= 1
 c450: x450 + x451 <= 1
 c451: x451 + x452 <= 1
 c452: x452 + x453 <= 1
 c453: x453 + x454 <= 1
 c454: x454 + x455 <= 1
 c455: x455 + x456 <= 1
 c456: x456 + x457 <= 1
 c457: x457 + x458 <= 1
 c458: x458 + x459 <= 1
 c459: x459 + x460 <= 1
 c460: x460 + x461 <= 1
 c461: x461 + x462 <= 1
 c462: x462 + x463 <= 1
 c463: x463 + x464 <= 1
 c464: x464 + x465 <= 1
 c465: x465 + x466 <= 1
 c466: x466 + x467 <= 1
 c467: x467 + x468 <= 1
 c468: x468 + x469 <= 1
 c469: x469 + x470 <= 1
 c470: x470 + x471 <= 1
 c471: x471 + x472 <= 1
 c472: x472 + x473 <= 1
 c473: x473 + x474 <= 1
 c474: x474 + x475 <= 1
 c475: x475 + x476 <= 1
 c476: x476 + x477 <= 1
 c477: x477 + x478 <= 1
 c478: x478 + x479 <= 1
 c479: x479 + x480 <= 1
 c480: x480 + x481 <= 1
 c481: x481 + x482 <= 1
 c482: x482 + x483 <= 1
 c483: x483 + x484 <= 1
 c484: x484 + x485 <= 1
 c485: x485 + x486 <= 1
 c486: x486 + x487 <= 1
 c487: x487 + x488 <= 1
 c488: x488 + x489 <= 1
 c489: x489 + x490 <= 1
 c490: x490 + x491 <= 1
 c491: x491 + x492 <= 1
 c492: x492 + x493 <= 1
 c493: x493 + x494 <= 1
 c494: x494 + x495 <= 1
 c495: x495 + x496 <= 1
 c496: x496 + x497 <= 1
 c497: x497 + x498 <= 1
 c498: x498 + x499 <= 1
 c499: x499 + x500 <= 1
 c500: x500 + x501 <= 1
 c501: x501 + x1 <= 1
Bounds
 0 <= x1 <= 1
 0 <= x2 <= 1
 0 <= x3 <= 1
 0 <= x4 <= 1
 0 <= x5 <= 1
 0 <= x6 <= 1
 0 <= x7 <= 1
 0 <= x8 <= 1
 0 <= x9 <= 1
 0 <= x10 <= 1
 0 <= x11 <= 1
 0 <= x12 <= 1
 0 <= x13 <= 1
 0 <= x14 <= 1
 0 <= x15 <= 1
 0 <= x16 <= 1
 0 <= x17 <= 1
 0 <= x18 <= 1
 0 <= x19 <= 1
 0 <= x20 <= 1
 0 <= x21 <= 1
 0 <= x22 <= 1
 0 <= x23 <= 1
 0 <= x24 <= 1
 0 <= x25 <= 1
 0 <= x26 <= 1
 0 <= x27 <= 1
 0 <= x28 <= 1
 0 <= x29 <= 1
 0 <= x30 <= 1
 0 <= x31 <= 1
 0 <= x32 <= 1
 0 <= x33 <= 1
 0 <= x34 <= 1
 0 <= x35 <= 1
 0 <= x36 <= 1
 0 <= x37 <= 1
 0 <= x38 <= 1
 0 <= x39 <= 1
 0 <= x40 <= 1
 0 <= x41 <= 1
 0 <= x42 <= 1
 0 <= x43 <= 1
 0 <= x44 <= 1
 0 <= x45 <= 1
 0 <= x46 <= 1
 0 <= x47 <= 1
 0 <= x48 <= 1
 0 <= x49 <= 1
 0 <= x50 <= 1
 0 <= x51 <= 1
 0 <= x52 <= 1
 0 <= x53 <= 1
 0 <= x54 <= 1
 0 <= x55 <= 1
 0 <= x56 <= 1
 0 <= x57 <= 1
 0 <= x58 <= 1
 0 <= x59 <= 1
 0 <= x60 <= 1
 0 <= x61 <= 1
 0 <= x62 <= 1
 0 <= x63 <= 1
 0 <= x64 <= 1
 0 <= x65 <= 1
 0 <= x66 <= 1
 0 <= x67 <= 1
 0 <= x68 <= 1
 0 <= x69 <= 1
 0 <= x70 <= 1
 0 <= x71 <= 1
 0 <= x72 <= 1
 0 <= x73 <= 1
 0 <= x74 <= 1
 0 <= x75 <= 1
 0 <= x76 <= 1
 0 <= x77 <= 1
 0 <= x78 <= 1
 0 <= x79 <= 1
 0 <= x80 <= 1
 0 <= x81 <= 1
 0 <= x82 <= 1
 0 <= x83 <= 1
 0 <= x84 <= 1
 0 <= x85 <= 1
 0 <= x86 <= 1
 0 <= x87 <= 1
 0 <= x88 <= 1
 0 <= x89 <= 1
 0 <= x90 <= 1
 0 <= x91 <= 1
 0 <= x92 <= 1
 0 <= x93 <= 1
 0 <= x94 <= 1
 0 <= x95 <= 1
 0 <= x96 <= 1
 0 <= x97 <= 1
 0 <= x98 <= 1
 0 <= x99 <= 1
 0 <= x100 <= 1
 0 <= x101 <= 1
 0 <= x102 <= 1
 0 <= x103 <= 1
 0 <= x104 <= 1
 0 <= x105 <= 1
 0 <= x106 <= 1
 0 <= x107 <= 1
 0 <= x108 <= 1
 0 <= x109 <= 1
 0 <= x110 <= 1
 0 <= x111 <= 1
 0 <= x112 <= 1
 0 <= x113 <= 1
 0 <= x114 <= 1
 0 <= x115 <= 1
 0 <= x116 <= 1
 0 <= x117 <= 1
 0 <= x118 <= 1
 0 <= x119 <= 1
 0 <= x120 <= 1
 0 <= x121 <= 1
 0 <= x122 <= 1
 0 <= x123 <= 1
 0 <= x124 <= 1
 0 <= x125 <= 1
 0 <= x126 <= 1
 0 <= x127 <= 1
 0 <= x128 <= 1
 0 <= x129 <= 1
 0 <= x130 <= 1
 0 <= x131 <= 1
 0 <= x132 <= 1
 0 <= x133 <= 1
 0 <= x134 <= 1
 0 <= x135 <= 1
 0 <= x136 <= 1
 0 <= x137 <= 1
 0 <= x138 <= 1
 0 <= x139 <= 1
 0 <= x140 <= 1
 0 <= x141 <= 1
 0 <= x142 <= 1
 0 <= x143 <= 1
 0 <= x144 <= 1
 0 <= x145 <= 1
 0 <= x146 <= 1
 0 <= x147 <= 1
 0 <= x148 <= 1
 0 <= x149 <= 1
 0 <= x150 <= 1
 0 <= x151 <= 1
 0 <= x152 <= 1
 0 <= x153 <= 1
 0 <= x154 <= 1
 0 <= x155 <= 1
 0 <= x156 <= 1
 0 <= x157 <= 1
 0 <= x158 <= 1
 0 <= x159 <= 1
 0 <= x160 <= 1
 0 <= x161 <= 1
 0 <= x162 <= 1
 0 <= x163 <= 1
 0 <= x164 <= 1
 0 <= x165 <= 1
 0 <= x166 <= 1
 0 <= x167 <= 1
 0 <= x168 <= 1
 0 <= x169 <= 1
 0 <= x170 <= 1
 0 <= x171 <= 1
 0 <= x172 <= 1
 0 <= x173 <= 1
 0 <= x174 <= 1
 0 <= x175 <= 1
 0 <= x176 <= 1
 0 <= x177 <= 1
 0 <= x178 <= 1
 0 <= x179 <= 1
 0 <= x180 <= 1
 0 <= x181 <= 1
 0 <= x182 <= 1
 0 <= x183 <= 1
 0 <= x184 <= 1
 0 <= x185 <= 1
 0 <= x186 <= 1
 0 <= x187 <= 1
 0 <= x188 <= 1
 0 <= x189 <= 1
 0 <= x190 <= 1
 0 <= x191 <= 1
 0 <= x192 <= 1
 0 <= x193 <= 1
 0 <= x194 <= 1
 0 <= x195 <= 1
 0 <= x196 <= 1
 0 <= x197 <= 1
 0 <= x198 <= 1
 0 <= x199 <= 1
 0 <= x200 <= 1
 0 <= x201 <= 1
 0 <= x202 <= 1
 0 <= x203 <= 1
 0 <= x204 <= 1
 0 <= x205 <= 1
 0 <= x206 <= 1
 0 <= x207 <= 1
 0 <= x208 <= 1
 0 <= x209 <= 1
 0 <= x210 <= 1
 0 <= x211 <= 1
 0 <= x212 <= 1
 0 <= x213 <= 1
 0 <= x214 <= 1
 0 <= x215 <= 1
 0 <= x216 <= 1
 0 <= x217 <= 1
 0 <= x218 <= 1
 0 <= x219 <= 1
 0 <= x220 <= 1
 0 <= x221 <= 1
 0 <= x222 <= 1
 0 <= x223 <= 1
 0 <= x224 <= 1
 0 <= x225 <= 1
 0 <= x226 <= 1
 0 <= x227 <= 1
 0 <= x228 <= 1
 0 <= x229 <= 1
 0 <= x230 <= 1
 0 <= x231 <= 1
 0 <= x232 <= 1
 0 <= x233 <= 1
 0 <= x234 <= 1
 0 <= x235 <= 1
 0 <= x236 <= 1
 0 <= x237 <= 1
 0 <= x238 <= 1
 0 <= x239 <= 1
 0 <= x240 <= 1
 0 <= x241 <= 1
 0 <= x242 <= 1
 0 <= x243 <= 1
 0 <= x244 <= 1
 0 <= x245 <= 1
 0 <= x246 <= 1
 0 <= x247 <= 1
 0 <= x248 <= 1
 0 <= x249 <= 1
 0 <= x250 <= 1
 0 <= x251 <= 1
 0 <= x252 <= 1
 0 <= x253 <= 1
 0 <= x254 <= 1
 0 <= x255 <= 1
 0 <= x256 <= 1
 0 <= x257 <= 1
 0 <= x258 <= 1
 0 <= x259 <= 1
 0 <= x260 <= 1
 0 <= x261 <= 1
 0 <= x262 <= 1
 0 <= x263 <= 1
 0 <= x264 <= 1
 0 <= x265 <= 1
 0 <= x266 <= 1
 0 <= x267 <= 1
 0 <= x268 <= 1
 0 <= x269 <= 1
 0 <= x270 <= 1
 0 <= x271 <= 1
 0 <= x272 <= 1
 0 <= x273 <= 1
 0 <= x274 <= 1
 0 <= x275 <= 1
 0 <= x276 <= 1
 0 <= x277 <= 1
 0 <= x278 <= 1
 0 <= x279 <= 1
 0 <= x280 <= 1
 0 <= x281 <= 1
 0 <= x282 <= 1
 0 <= x283 <= 1
 0 <= x284 <= 1
 0 <= x285 <= 1
 0 <= x286 <= 1
 0 <= x287 <= 1
 0 <= x288 <= 1
 0 <= x289 <= 1
 0 <= x290 <= 1
 0 <= x291 <= 1
 0 <= x292 <= 1
 0 <= x293 <= 1
 0 <= x294 <= 1
 0 <= x295 <= 1
 0 <= x296 <= 1
 0 <= x297 <= 1
 0 <= x298 <= 1
 0 <= x299 <= 1
 0 <= x300 <= 1
 0 <= x301 <= 1
 0 <= x302 <= 1
 0 <= x303 <= 1
 0 <= x304 <= 1
 0 <= x305 <= 1
 0 <= x306 <= 1
 0 <= x307 <= 1
 0 <= x308 <= 1
 0 <= x309 <= 1
 0 <= x310 <= 1
 0 <= x311 <= 1
 0 <= x312 <= 1
 0 <= x313 <= 1
 0 <= x314 <= 1
 0 <= x315 <= 1
 0 <= x316 <= 1
 0 <= x317 <= 1
 0 <= x318 <= 1
 0 <= x319 <= 1
 0 <= x320 <= 1
 0 <= x321 <= 1
 0 <= x322 <= 1
 0 <= x323 <= 1
 0 <= x324 <= 1
 0 <= x325 <= 1
 0 <= x326 <= 1
 0 <= x327 <= 1
 0 <= x328 <= 1
 0 <= x329 <= 1
 0 <= x330 <= 1
 0 <= x331 <= 1
 0 <= x332 <= 1
 0 <= x333 <= 1
 0 <= x334 <= 1
 0 <= x335 <= 1
 0 <= x336 <= 1
 0 <= x337 <= 1
 0 <= x338 <= 1
 0 <= x339 <= 1
 0 <= x340 <= 1
 0 <= x341 <= 1
 0 <= x342 <= 1
 0 <= x343 <= 1
 0 <= x344 <= 1
 0 <= x345 <= 1
 0 <= x346 <= 1
 0 <= x347 <= 1
 0 <= x348 <= 1
 0 <= x349 <= 1
 0 <= x350 <= 1
 0 <= x351 <= 1
 0 <= x352 <= 1
 0 <= x353 <= 1
 0 <= x354 <= 1
 0 <= x355 <= 1
 0 <= x356 <= 1
 0 <= x357 <= 1
 0 <= x358 <= 1
 0 <= x359 <= 1
 0 <= x360 <= 1
 0 <= x361 <= 1
 0 <= x362 <= 1
 0 <= x363 <= 1
 0 <= x364 <= 1
 0 <= x365 <= 1
 0 <= x366 <= 1
 0 <= x367 <= 1
 0 <= x368 <= 1
 0 <= x369 <= 1
 0 <= x370 <= 1
 0 <= x371 <= 1
 0 <= x372 <= 1
 0 <= x373 <= 1
 0 <= x374 <= 1
 0 <= x375 <= 1
 0 <= x376 <= 1
 0 <= x377 <= 1
 0 <= x378 <= 1
 0 <= x379 <= 1
 0 <= x380 <= 1
 0 <= x381 <= 1
 0 <= x382 <= 1
 0 <= x383 <= 1
 0 <= x384 <= 1
 0 <= x385 <= 1
 0 <= x386 <= 1
 0 <= x387 <= 1
 0 <= x388 <= 1
 0 <= x389 <= 1
 0 <= x390 <= 1
 0 <= x391 <= 1
 0 <= x392 <= 1
 0 <= x393 <= 1
 0 <= x394 <= 1
 0 <= x395 <= 1
 0 <= x396 <= 1
 0 <= x397 <= 1
 0 <= x398 <= 1
 0 <= x399 <= 1
 0 <= x400 <= 1
 0 <= x401 <= 1
 0 <= x402 <= 1
 0 <= x403 <= 1
 0 <= x404 <= 1
 0 <= x405 <= 1
 0 <= x406 <= 1
 0 <= x407 <= 1
 0 <= x408 <= 1
 0 <= x409 <= 1
 0 <= x410 <= 1
 0 <= x411 <= 1
 0 <= x412 <= 1
 0 <= x413 <= 1
 0 <= x414 <= 1
 0 <= x415 <= 1
 0 <= x416 <= 1
 0 <= x417 <= 1
 0 <= x418 <= 1
 0 <= x419 <= 1
 0 <= x420 <= 1
 0 <= x421 <= 1
 0 <= x422 <= 1
 0 <= x423 <= 1
 0 <= x424 <= 1
 0 <= x425 <= 1
 0 <= x426 <= 1
 0 <= x427 <= 1
 0 <= x428 <= 1
 0 <= x429 <= 1
 0 <= x430 <= 1
 0 <= x431 <= 1
 0 <= x432 <= 1
 0 <= x433 <= 1
 0 <= x434 <= 1
 0 <= x435 <= 1
 0 <= x436 <= 1
 0 <= x437 <= 1
 0 <= x438 <= 1
 0 <= x439 <= 1
 0 <= x440 <= 1
 0 <= x441 <= 1
 0 <= x442 <= 1
 0 <= x443 <= 1
 0 <= x444 <= 1
 0 <= x445 <= 1
 0 <= x446 <= 1
 0 <= x447 <= 1
 0 <= x448 <= 1
 0 <= x449 <= 1
 0 <= x450 <= 1
 0 <= x451 <= 1
 0 <= x452 <= 1
 0 <= x453 <= 1
 0 <= x454 <= 1
 0 <= x455 <= 1
 0 <= x456 <= 1
 0 <= x457 <= 1
 0 <= x458 <= 1
 0 <= x459 <= 1
 0 <= x460 <= 1
 0 <= x461 <= 1
 0 <= x462 <= 1
 0 <= x463 <= 1
 0 <= x464 <= 1
 0 <= x465 <= 1
 0 <= x466 <= 1
 0 <= x467 <= 1
 0 <= x468 <= 1
 0 <= x469 <= 1
 0 <= x470 <= 1
 0 <= x471 <= 1
 0 <= x472 <= 1
 0 <= x473 <= 1
 0 <= x474 <= 1
 0 <= x475 <= 1
 0 <= x476 <= 1
 0 <= x477 <= 1
 0 <= x478 <= 1
 0 <= x479 <= 1
 0 <= x480 <= 1
 0 <= x481 <= 1
 0 <= x482 <= 1
 0 <= x483 <= 1
 0 <= x484 <= 1
 0 <= x485 <= 1
 0 <= x486 <= 1
 0 <= x487 <= 1
 0 <= x488 <= 1
 0 <= x489 <= 1
 0 <= x490 <= 1
 0 <= x491 <= 1
 0 <= x492 <= 1
 0 <= x493 <= 1
 0 <= x494 <= 1
 0 <= x495 <= 1
 0 <= x496 <= 1
 0 <= x497 <= 1
 0 <= x498 <= 1
 0 <= x499 <= 1
 0 <= x500 <= 1
 0 <= x501 <= 1
End
