Maximize
 obj: x1 + x2 + x3 + x4 + x5 + x6 + x7 + x8 + x9 + x10 + x11 + x12 + x13 + x14 + x15 + x16 + x17 + x18 + x19 + x20 + x21 + x22 + x23 + x24 + x25 + x26 + x27 + x28 + x29 + x30 + x31 + x32 + x33 + x34 + x35 + x36 + x37 + x38 + x39 + x40 + x41 + x42 + x43 + x44 + x45 + x46 + x47 + x48 + x49 + x50 + x51
Subject To
 c1: x1 + x2 <= 1
 c2: x2 + x3 <= 1
 c3: x3 + x4 <= 1
 c4: x4 + x5 <= 1
 c5: x5 + x6 <= 1
 c6: x6 + x7 <= 1
 c7: x7 + x8 <= 1
 c8: x8 + x9 <= 1
 c9: x9 + x10 <= 1
 c10: x10 + x11 <= 1
 c11: x11 + x12 <= 1
 c12: x12 + x13 <= 1
 c13: x13 + x14 <= 1
 c14: x14 + x15 <= 1
 c15: x15 + x16 <= 1
 c16: x16 + x17 <= 1
 c17: x17 + x18 <= 1
 c18: x18 + x19 <= 1
 c19: x19 + x20 <= 1
 c20: x20 + x21 <= 1
 c21: x21 + x22 <= 1
 c22: x22 + x23 <= 1
 c23: x23 + x24 <= 1
 c24: x24 + x25 <= 1
 c25: x25 + x26 <= 1
 c26: x26 + x27 <= 1
 c27: x27 + x28 <= 1
 c28: x28 + x29 <= 1
 c29: x29 + x30 <= 1
 c30: x30 + x31 <= 1
 c31: x31 + x32 <= 1
 c32: x32 + x33 <= 1
 c33: x33 + x34 <= 1
 c34: x34 + x35 <= 1
 c35: x35 + x36 <= 1
 c36: x36 + x37 <= 1
 c37: x37 + x38 <= 1
 c38: x38 + x39 <= 1
 c39: x39 + x40 <= 1
 c40: x40 + x41 <= 1
 c41: x41 + x42 <= 1
 c42: x42 + x43 <= 1
 c43: x43 + x44 <= 1
 c44: x44 + x45 <= 1
 c45: x45 + x46 <= 1
 c46: x46 + x47 <= 1
 c47: x47 + x48 <= 1
 c48: x48 + x49 <= 1
 c49: x49 + x50 <= 1
 c50: x50 + x51 <= 1
 c51: x51 + x1 <= 1
Bounds
 0 <= x1 <= 1
 0 <= x2 <= 1
 0 <= x3 <= 1
 0 <= x4 <= 1
 0 <= x5 <= 1
 0 <= x6 <= 1
 0 <= x7 <= 1
 0 <= x8 <= 1
 0 <= x9 <= 1
 0 <= x10 <= 1
 0 <= x11 <= 1
 0 <= x12 <= 1
 0 <= x13 <= 1
 0 <= x14 <= 1
 0 <= x15 <= 1
 0 <= x16 <= 1
 0 <= x17 <= 1
 0 <= x18 <= 1
 0 <= x19 <= 1
 0 <= x20 <= 1
 0 <= x21 <= 1
 0 <= x22 <= 1
 0 <= x23 <= 1
 0 <= x24 <= 1
 0 <= x25 <= 1
 0 <= x26 <= 1
 0 <= x27 <= 1
 0 <= x28 <= 1
 0 <= x29 <= 1
 0 <= x30 <= 1
 0 <= x31 <= 1
 0 <= x32 <= 1
 0 <= x33 <= 1
 0 <= x34 <= 1
 0 <= x35 <= 1
 0 <= x36 <= 1
 0 <= x37 <= 1
 0 <= x38 <= 1
 0 <= x39 <= 1
 0 <= x40 <= 1
 0 <= x41 <= 1
 0 <= x42 <= 1
 0 <= x43 <= 1
 0 <= x44 <= 1
 0 <= x45 <= 1
 0 <= x46 <= 1
 0 <= x47 <= 1
 0 <= x48 <= 1
 0 <= x49 <= 1
 0 <= x50 <= 1
 0 <= x51 <= 1
End
